NAME HashCodeExact
OBJSENSE MAX
ROWS
 N  OBJ
 L  R0      
 L  R1      
 L  R2      
 L  R3      
 L  R4      
 L  R5      
 L  R6      
 L  R7      
 L  R8      
 L  R9      
 L  R10     
 L  R11     
 L  R12     
 L  R13     
 L  R14     
 L  R15     
 L  R16     
 L  R17     
 L  R18     
 E  R19     
 E  R20     
 E  R21     
COLUMNS
    MARKER    'MARKER'                 'INTORG'
    x[0,0]    R7        -1
    x[0,0]    R16       50
    x[0,1]    R8        -1
    x[0,1]    R17       50
    x[0,2]    R9        -1
    x[0,2]    R18       50
    x[1,0]    R13       -1
    x[1,0]    R16       50
    x[1,1]    R14       -1
    x[1,1]    R17       50
    x[1,2]    R15       -1
    x[1,2]    R18       50
    x[2,0]    R16       80
    x[2,1]    R17       80
    x[2,2]    R18       80
    x[3,0]    R4        -1
    x[3,0]    R16       30
    x[3,1]    R5        -1
    x[3,1]    R17       30
    x[3,2]    R6        -1
    x[3,2]    R18       30
    x[4,0]    R10       -1
    x[4,0]    R16       110
    x[4,1]    R11       -1
    x[4,1]    R17       110
    x[4,2]    R12       -1
    x[4,2]    R18       110
    y[0,0]    OBJ       1350000
    y[0,0]    R0        1
    y[0,0]    R4        1
    y[0,1]    OBJ       1050000
    y[0,1]    R0        1
    y[0,1]    R5        1
    y[0,2]    OBJ       1200000
    y[0,2]    R0        1
    y[0,2]    R6        1
    y[1,0]    R1        1
    y[1,0]    R7        1
    y[1,0]    R19       1
    y[1,1]    R1        1
    y[1,1]    R8        1
    y[1,1]    R20       1
    y[1,2]    R1        1
    y[1,2]    R9        1
    y[1,2]    R21       1
    y[2,0]    OBJ       450000
    y[2,0]    R2        1
    y[2,0]    R10       1
    y[2,1]    OBJ       350000
    y[2,1]    R2        1
    y[2,1]    R11       1
    y[2,2]    OBJ       400000
    y[2,2]    R2        1
    y[2,2]    R12       1
    y[3,0]    OBJ       900000
    y[3,0]    R3        1
    y[3,0]    R13       1
    y[3,1]    OBJ       700000
    y[3,1]    R3        1
    y[3,1]    R14       1
    y[3,2]    OBJ       800000
    y[3,2]    R3        1
    y[3,2]    R15       1
    MARKER    'MARKER'                 'INTEND'
RHS
    RHS1      R0        1
    RHS1      R1        1
    RHS1      R2        1
    RHS1      R3        1
    RHS1      R16       100
    RHS1      R17       100
    RHS1      R18       100
BOUNDS
 BV BND1      x[0,0]  
 BV BND1      x[0,1]  
 BV BND1      x[0,2]  
 BV BND1      x[1,0]  
 BV BND1      x[1,1]  
 BV BND1      x[1,2]  
 BV BND1      x[2,0]  
 BV BND1      x[2,1]  
 BV BND1      x[2,2]  
 BV BND1      x[3,0]  
 BV BND1      x[3,1]  
 BV BND1      x[3,2]  
 BV BND1      x[4,0]  
 BV BND1      x[4,1]  
 BV BND1      x[4,2]  
 BV BND1      y[0,0]  
 BV BND1      y[0,1]  
 BV BND1      y[0,2]  
 BV BND1      y[1,0]  
 BV BND1      y[1,1]  
 BV BND1      y[1,2]  
 BV BND1      y[2,0]  
 BV BND1      y[2,1]  
 BV BND1      y[2,2]  
 BV BND1      y[3,0]  
 BV BND1      y[3,1]  
 BV BND1      y[3,2]  
ENDATA
